\Problem name: compact

Minimize
OBJROW: C
Subject To
ord(0,1):  - x(0,1) + x(0,2) >= 7
ord(0,2):  x(0,0) - x(0,2) >= 7
ord(1,1):  x(1,0) - x(1,1) >= 4
ord(1,2):  - x(1,0) + x(1,2) >= 3
ord(2,1):  - x(2,1) + x(2,2) >= 7
ord(2,2):  x(2,0) - x(2,2) >= 6
triangle2(0,1,0):  y(0,1,0) + y(1,0,0) = 1
triangle2(0,1,1):  y(0,1,1) + y(1,0,1) = 1
triangle2(0,1,2):  y(0,1,2) + y(1,0,2) = 1
triangle2(0,2,0):  y(0,2,0) + y(2,0,0) = 1
triangle2(0,2,1):  y(0,2,1) + y(2,0,1) = 1
triangle2(0,2,2):  y(0,2,2) + y(2,0,2) = 1
triangle2(1,2,0):  y(1,2,0) + y(2,1,0) = 1
triangle2(1,2,1):  y(1,2,1) + y(2,1,1) = 1
triangle2(1,2,2):  y(1,2,2) + y(2,1,2) = 1
MCLinV(0,1,0):  - x(0,0) + v(0,1,0)p - v(0,1,0)n + x(1,0) = -3
MCLinV(1,0,0):  x(0,0) + v(1,0,0)p - v(1,0,0)n - x(1,0) = -1
MCLin1(0,1,0):  u(0,1,0)p - u(0,1,0)n >= 0
MCLin2(0,1,0):  23 y(1,0,0) + u(0,1,0)p - u(0,1,0)n >= 0
MCLin3(0,1,0):  -36 y(1,0,0) - v(0,1,0)p + v(0,1,0)n + u(0,1,0)p - u(0,1,0)n >= -36
MCLin4(0,1,0):  -36 y(1,0,0) + u(0,1,0)p - u(0,1,0)n <= 0
MCLin5(0,1,0):  23 y(1,0,0) - v(0,1,0)p + v(0,1,0)n + u(0,1,0)p - u(0,1,0)n <= 23
MCLin6(1,0,0):  u(1,0,0)p - u(1,0,0)n >= 0
MCLin7(1,0,0):  40 y(0,1,0) + u(1,0,0)p - u(1,0,0)n >= 0
MCLin8(1,0,0):  -19 y(0,1,0) - v(1,0,0)p + v(1,0,0)n + u(1,0,0)p - u(1,0,0)n >= -19
MCLin9(1,0,0):  -19 y(0,1,0) + u(1,0,0)p - u(1,0,0)n <= 0
MCLin10(1,0,0):  40 y(0,1,0) - v(1,0,0)p + v(1,0,0)n + u(1,0,0)p - u(1,0,0)n <= 40
MCLinV(0,1,1):  - x(0,1) + v(0,1,1)p - v(0,1,1)n + x(1,1) = -4
MCLinV(1,0,1):  x(0,1) + v(1,0,1)p - v(1,0,1)n - x(1,1) = -7
MCLin1(0,1,1):  u(0,1,1)p - u(0,1,1)n >= 0
MCLin2(0,1,1):  34 y(1,0,1) + u(0,1,1)p - u(0,1,1)n >= 0
MCLin3(0,1,1):  -25 y(1,0,1) - v(0,1,1)p + v(0,1,1)n + u(0,1,1)p - u(0,1,1)n >= -25
MCLin4(0,1,1):  -25 y(1,0,1) + u(0,1,1)p - u(0,1,1)n <= 0
MCLin5(0,1,1):  34 y(1,0,1) - v(0,1,1)p + v(0,1,1)n + u(0,1,1)p - u(0,1,1)n <= 34
MCLin6(1,0,1):  u(1,0,1)p - u(1,0,1)n >= 0
MCLin7(1,0,1):  36 y(0,1,1) + u(1,0,1)p - u(1,0,1)n >= 0
MCLin8(1,0,1):  -23 y(0,1,1) - v(1,0,1)p + v(1,0,1)n + u(1,0,1)p - u(1,0,1)n >= -23
MCLin9(1,0,1):  -23 y(0,1,1) + u(1,0,1)p - u(1,0,1)n <= 0
MCLin10(1,0,1):  36 y(0,1,1) - v(1,0,1)p + v(1,0,1)n + u(1,0,1)p - u(1,0,1)n <= 36
MCLinV(0,1,2):  - x(0,2) + v(0,1,2)p - v(0,1,2)n + x(1,2) = -7
MCLinV(1,0,2):  x(0,2) + v(1,0,2)p - v(1,0,2)n - x(1,2) = -7
MCLin1(0,1,2):  u(0,1,2)p - u(0,1,2)n >= 0
MCLin2(0,1,2):  37 y(1,0,2) + u(0,1,2)p - u(0,1,2)n >= 0
MCLin3(0,1,2):  -22 y(1,0,2) - v(0,1,2)p + v(0,1,2)n + u(0,1,2)p - u(0,1,2)n >= -22
MCLin4(0,1,2):  -22 y(1,0,2) + u(0,1,2)p - u(0,1,2)n <= 0
MCLin5(0,1,2):  37 y(1,0,2) - v(0,1,2)p + v(0,1,2)n + u(0,1,2)p - u(0,1,2)n <= 37
MCLin6(1,0,2):  u(1,0,2)p - u(1,0,2)n >= 0
MCLin7(1,0,2):  36 y(0,1,2) + u(1,0,2)p - u(1,0,2)n >= 0
MCLin8(1,0,2):  -23 y(0,1,2) - v(1,0,2)p + v(1,0,2)n + u(1,0,2)p - u(1,0,2)n >= -23
MCLin9(1,0,2):  -23 y(0,1,2) + u(1,0,2)p - u(1,0,2)n <= 0
MCLin10(1,0,2):  36 y(0,1,2) - v(1,0,2)p + v(1,0,2)n + u(1,0,2)p - u(1,0,2)n <= 36
MCLinV(0,2,0):  - x(0,0) + v(0,2,0)p - v(0,2,0)n + x(2,0) = -2
MCLinV(2,0,0):  x(0,0) + v(2,0,0)p - v(2,0,0)n - x(2,0) = -1
MCLin1(0,2,0):  u(0,2,0)p - u(0,2,0)n >= 0
MCLin2(0,2,0):  30 y(2,0,0) + u(0,2,0)p - u(0,2,0)n >= 0
MCLin3(0,2,0):  -28 y(2,0,0) - v(0,2,0)p + v(0,2,0)n + u(0,2,0)p - u(0,2,0)n >= -28
MCLin4(0,2,0):  -28 y(2,0,0) + u(0,2,0)p - u(0,2,0)n <= 0
MCLin5(0,2,0):  30 y(2,0,0) - v(0,2,0)p + v(0,2,0)n + u(0,2,0)p - u(0,2,0)n <= 30
MCLin6(2,0,0):  u(2,0,0)p - u(2,0,0)n >= 0
MCLin7(2,0,0):  31 y(0,2,0) + u(2,0,0)p - u(2,0,0)n >= 0
MCLin8(2,0,0):  -27 y(0,2,0) - v(2,0,0)p + v(2,0,0)n + u(2,0,0)p - u(2,0,0)n >= -27
MCLin9(2,0,0):  -27 y(0,2,0) + u(2,0,0)p - u(2,0,0)n <= 0
MCLin10(2,0,0):  31 y(0,2,0) - v(2,0,0)p + v(2,0,0)n + u(2,0,0)p - u(2,0,0)n <= 31
MCLinV(0,2,1):  - x(0,1) + v(0,2,1)p - v(0,2,1)n + x(2,1) = -7
MCLinV(2,0,1):  x(0,1) + v(2,0,1)p - v(2,0,1)n - x(2,1) = -7
MCLin1(0,2,1):  u(0,2,1)p - u(0,2,1)n >= 0
MCLin2(0,2,1):  36 y(2,0,1) + u(0,2,1)p - u(0,2,1)n >= 0
MCLin3(0,2,1):  -22 y(2,0,1) - v(0,2,1)p + v(0,2,1)n + u(0,2,1)p - u(0,2,1)n >= -22
MCLin4(0,2,1):  -22 y(2,0,1) + u(0,2,1)p - u(0,2,1)n <= 0
MCLin5(0,2,1):  36 y(2,0,1) - v(0,2,1)p + v(0,2,1)n + u(0,2,1)p - u(0,2,1)n <= 36
MCLin6(2,0,1):  u(2,0,1)p - u(2,0,1)n >= 0
MCLin7(2,0,1):  36 y(0,2,1) + u(2,0,1)p - u(2,0,1)n >= 0
MCLin8(2,0,1):  -22 y(0,2,1) - v(2,0,1)p + v(2,0,1)n + u(2,0,1)p - u(2,0,1)n >= -22
MCLin9(2,0,1):  -22 y(0,2,1) + u(2,0,1)p - u(2,0,1)n <= 0
MCLin10(2,0,1):  36 y(0,2,1) - v(2,0,1)p + v(2,0,1)n + u(2,0,1)p - u(2,0,1)n <= 36
MCLinV(0,2,2):  - x(0,2) + v(0,2,2)p - v(0,2,2)n + x(2,2) = -6
MCLinV(2,0,2):  x(0,2) + v(2,0,2)p - v(2,0,2)n - x(2,2) = -7
MCLin1(0,2,2):  u(0,2,2)p - u(0,2,2)n >= 0
MCLin2(0,2,2):  35 y(2,0,2) + u(0,2,2)p - u(0,2,2)n >= 0
MCLin3(0,2,2):  -23 y(2,0,2) - v(0,2,2)p + v(0,2,2)n + u(0,2,2)p - u(0,2,2)n >= -23
MCLin4(0,2,2):  -23 y(2,0,2) + u(0,2,2)p - u(0,2,2)n <= 0
MCLin5(0,2,2):  35 y(2,0,2) - v(0,2,2)p + v(0,2,2)n + u(0,2,2)p - u(0,2,2)n <= 35
MCLin6(2,0,2):  u(2,0,2)p - u(2,0,2)n >= 0
MCLin7(2,0,2):  36 y(0,2,2) + u(2,0,2)p - u(2,0,2)n >= 0
MCLin8(2,0,2):  -22 y(0,2,2) - v(2,0,2)p + v(2,0,2)n + u(2,0,2)p - u(2,0,2)n >= -22
MCLin9(2,0,2):  -22 y(0,2,2) + u(2,0,2)p - u(2,0,2)n <= 0
MCLin10(2,0,2):  36 y(0,2,2) - v(2,0,2)p + v(2,0,2)n + u(2,0,2)p - u(2,0,2)n <= 36
MCLinV(1,2,0):  - x(1,0) + v(1,2,0)p - v(1,2,0)n + x(2,0) = -2
MCLinV(2,1,0):  x(1,0) + v(2,1,0)p - v(2,1,0)n - x(2,0) = -3
MCLin1(1,2,0):  u(1,2,0)p - u(1,2,0)n >= 0
MCLin2(1,2,0):  40 y(2,1,0) + u(1,2,0)p - u(1,2,0)n >= 0
MCLin3(1,2,0):  -19 y(2,1,0) - v(1,2,0)p + v(1,2,0)n + u(1,2,0)p - u(1,2,0)n >= -19
MCLin4(1,2,0):  -19 y(2,1,0) + u(1,2,0)p - u(1,2,0)n <= 0
MCLin5(1,2,0):  40 y(2,1,0) - v(1,2,0)p + v(1,2,0)n + u(1,2,0)p - u(1,2,0)n <= 40
MCLin6(2,1,0):  u(2,1,0)p - u(2,1,0)n >= 0
MCLin7(2,1,0):  24 y(1,2,0) + u(2,1,0)p - u(2,1,0)n >= 0
MCLin8(2,1,0):  -35 y(1,2,0) - v(2,1,0)p + v(2,1,0)n + u(2,1,0)p - u(2,1,0)n >= -35
MCLin9(2,1,0):  -35 y(1,2,0) + u(2,1,0)p - u(2,1,0)n <= 0
MCLin10(2,1,0):  24 y(1,2,0) - v(2,1,0)p + v(2,1,0)n + u(2,1,0)p - u(2,1,0)n <= 24
MCLinV(1,2,1):  - x(1,1) + v(1,2,1)p - v(1,2,1)n + x(2,1) = -7
MCLinV(2,1,1):  x(1,1) + v(2,1,1)p - v(2,1,1)n - x(2,1) = -4
MCLin1(1,2,1):  u(1,2,1)p - u(1,2,1)n >= 0
MCLin2(1,2,1):  36 y(2,1,1) + u(1,2,1)p - u(1,2,1)n >= 0
MCLin3(1,2,1):  -23 y(2,1,1) - v(1,2,1)p + v(1,2,1)n + u(1,2,1)p - u(1,2,1)n >= -23
MCLin4(1,2,1):  -23 y(2,1,1) + u(1,2,1)p - u(1,2,1)n <= 0
MCLin5(1,2,1):  36 y(2,1,1) - v(1,2,1)p + v(1,2,1)n + u(1,2,1)p - u(1,2,1)n <= 36
MCLin6(2,1,1):  u(2,1,1)p - u(2,1,1)n >= 0
MCLin7(2,1,1):  34 y(1,2,1) + u(2,1,1)p - u(2,1,1)n >= 0
MCLin8(2,1,1):  -25 y(1,2,1) - v(2,1,1)p + v(2,1,1)n + u(2,1,1)p - u(2,1,1)n >= -25
MCLin9(2,1,1):  -25 y(1,2,1) + u(2,1,1)p - u(2,1,1)n <= 0
MCLin10(2,1,1):  34 y(1,2,1) - v(2,1,1)p + v(2,1,1)n + u(2,1,1)p - u(2,1,1)n <= 34
MCLinV(1,2,2):  - x(1,2) + v(1,2,2)p - v(1,2,2)n + x(2,2) = -6
MCLinV(2,1,2):  x(1,2) + v(2,1,2)p - v(2,1,2)n - x(2,2) = -7
MCLin1(1,2,2):  u(1,2,2)p - u(1,2,2)n >= 0
MCLin2(1,2,2):  35 y(2,1,2) + u(1,2,2)p - u(1,2,2)n >= 0
MCLin3(1,2,2):  -24 y(2,1,2) - v(1,2,2)p + v(1,2,2)n + u(1,2,2)p - u(1,2,2)n >= -24
MCLin4(1,2,2):  -24 y(2,1,2) + u(1,2,2)p - u(1,2,2)n <= 0
MCLin5(1,2,2):  35 y(2,1,2) - v(1,2,2)p + v(1,2,2)n + u(1,2,2)p - u(1,2,2)n <= 35
MCLin6(2,1,2):  u(2,1,2)p - u(2,1,2)n >= 0
MCLin7(2,1,2):  37 y(1,2,2) + u(2,1,2)p - u(2,1,2)n >= 0
MCLin8(2,1,2):  -22 y(1,2,2) - v(2,1,2)p + v(2,1,2)n + u(2,1,2)p - u(2,1,2)n >= -22
MCLin9(2,1,2):  -22 y(1,2,2) + u(2,1,2)p - u(2,1,2)n <= 0
MCLin10(2,1,2):  37 y(1,2,2) - v(2,1,2)p + v(2,1,2)n + u(2,1,2)p - u(2,1,2)n <= 37
makespan(0):  C - x(0,0) >= 1
makespan(1):  C - x(1,2) >= 7
makespan(2):  C - x(2,0) >= 2
cut_clique_1(0,1):  0.68188 x(0,1) + 0.99592 x(1,1) + 0.93020 x(2,1) >= 1
cut_clique_1(1,1):  0.58325 x(0,1) + 0.99592 x(1,1) + 0.76643 x(2,1) >= 1
cut_clique_1(2,1):  0.68188 x(0,1) + 0.99592 x(1,1) + 0.99531 x(2,1) >= 1
cut_clique_1(3,1):  0.58325 x(0,1) + 0.99592 x(1,1) + 0.72305 x(2,1) >= 1
cut_clique_1(4,1):  0.78813 x(0,1) + 0.36296 x(1,1) + 0.82900 x(2,1) >= 1
cut_clique_1(5,1):  0.56626 x(0,1) + 0.93955 x(1,1) + 0.68823 x(2,1) >= 1
cut_clique_1(6,1):  0.54448 x(0,1) + 0.85414 x(1,1) + 0.63006 x(2,1) >= 1
cut_clique_1(7,1):  0.54448 x(0,1) + 0.85414 x(1,1) + 0.63636 x(2,1) >= 1
cut_clique_1(8,1):  0.92182 x(0,1) + 0.50811 x(1,1) + 0.85818 x(2,1) >= 1
cut_clique_1(9,1):  0.97033 x(0,1) + 0.50811 x(1,1) + 0.65461 x(2,1) >= 1
cut_clique_1(10,1):  0.92182 x(0,1) + 0.50811 x(1,1) + 0.65461 x(2,1) >= 1
cut_clique_1(11,1):  0.56626 x(0,1) + 0.85414 x(1,1) + 0.66818 x(2,1) >= 1
cut_clique_1(12,1):  0.62407 x(0,1) + 0.99592 x(1,1) + 0.76643 x(2,1) >= 1
cut_clique_1(13,1):  0.68188 x(0,1) + 0.99592 x(1,1) + 0.76643 x(2,1) >= 1
cut_clique_1(14,1):  0.78813 x(0,1) + 0.36296 x(1,1) + 0.84618 x(2,1) >= 1
cut_clique_1(15,1):  0.97845 x(0,1) + 0.99592 x(1,1) + 0.99531 x(2,1) >= 1
cut_clique_1(16,1):  0.86694 x(0,1) + 0.36296 x(1,1) + 0.82900 x(2,1) >= 1
cut_clique_1(17,1):  0.56626 x(0,1) + 0.99592 x(1,1) + 0.72305 x(2,1) >= 1
cut_clique_1(18,1):  0.73643 x(0,1) + 0.99592 x(1,1) + 0.99531 x(2,1) >= 1
cut_clique_1(19,1):  0.56626 x(0,1) + 0.93955 x(1,1) + 0.66818 x(2,1) >= 1
cut_clique_1(20,1):  0.56626 x(0,1) + 0.99592 x(1,1) + 0.68823 x(2,1) >= 1
cut_clique_1(21,1):  0.53375 x(0,1) + 0.85414 x(1,1) + 0.63006 x(2,1) >= 1
cut_clique_1(22,1):  0.80448 x(0,1) + 0.99592 x(1,1) + 0.99531 x(2,1) >= 1
cut_clique_1(23,1):  0.86694 x(0,1) + 0.37748 x(1,1) + 0.73980 x(2,1) >= 1
cut_clique_1(24,1):  0.86694 x(0,1) + 0.36296 x(1,1) + 0.76268 x(2,1) >= 1
cut_clique_1(25,1):  0.76588 x(0,1) + 0.99592 x(1,1) + 0.99531 x(2,1) >= 1
cut_clique_1(26,1):  0.56626 x(0,1) + 0.85414 x(1,1) + 0.63636 x(2,1) >= 1
cut_clique_1(27,1):  0.79652 x(0,1) + 0.99592 x(1,1) + 0.99531 x(2,1) >= 1
cut_clique_1(28,1):  0.80625 x(0,1) + 0.37748 x(1,1) + 0.79898 x(2,1) >= 1
cut_clique_1(29,1):  0.53909 x(0,1) + 0.85414 x(1,1) + 0.63006 x(2,1) >= 1
cut_clique_1(30,1):  0.78813 x(0,1) + 0.36296 x(1,1) + 0.85464 x(2,1) >= 1
cut_clique_1(31,1):  0.66202 x(0,1) + 0.99592 x(1,1) + 0.76643 x(2,1) >= 1
cut_clique_1(32,1):  0.64904 x(0,1) + 0.99592 x(1,1) + 0.76643 x(2,1) >= 1
cut_clique_1(33,1):  0.87075 x(0,1) + 0.37748 x(1,1) + 0.79898 x(2,1) >= 1
cut_clique_1(34,1):  0.68188 x(0,1) + 0.99592 x(1,1) + 0.89442 x(2,1) >= 1
cut_clique_1(35,1):  0.68188 x(0,1) + 0.99592 x(1,1) + 0.86837 x(2,1) >= 1
cut_clique_1(36,1):  0.92182 x(0,1) + 0.52193 x(1,1) + 0.77237 x(2,1) >= 1
cut_clique_1(37,1):  0.92182 x(0,1) + 0.54368 x(1,1) + 0.85818 x(2,1) >= 1
cut_clique_1(38,1):  0.92182 x(0,1) + 0.52193 x(1,1) + 0.85818 x(2,1) >= 1
cut_clique_1(39,1):  0.99014 x(0,1) + 0.46192 x(1,1) + 0.65461 x(2,1) >= 1
cut_clique_1(40,1):  0.86550 x(0,1) + 0.51325 x(1,1) + 0.61756 x(2,1) >= 1
cut_clique_1(41,1):  0.86550 x(0,1) + 0.51325 x(1,1) + 0.65461 x(2,1) >= 1
cut_clique_1(42,1):  0.99014 x(0,1) + 0.51325 x(1,1) + 0.65461 x(2,1) >= 1
cut_clique_1(43,1):  0.97033 x(0,1) + 0.46192 x(1,1) + 0.65461 x(2,1) >= 1
cut_clique_1(44,1):  0.90012 x(0,1) + 0.51325 x(1,1) + 0.65461 x(2,1) >= 1
cut_clique_1(45,1):  0.99802 x(0,1) + 0.99592 x(1,1) + 0.99531 x(2,1) >= 1
cut_clique_1(46,1):  0.68188 x(0,1) + 0.99592 x(1,1) + 0.78943 x(2,1) >= 1
cut_clique_1(47,1):  0.56626 x(0,1) + 0.99592 x(1,1) + 0.70199 x(2,1) >= 1
cut_clique_1(48,1):  0.86550 x(0,1) + 0.53572 x(1,1) + 0.61756 x(2,1) >= 1
cut_clique_1(49,1):  0.86550 x(0,1) + 0.50358 x(1,1) + 0.61756 x(2,1) >= 1
cut_clique_1(0,2):  0.06731 x(1,2) + 0.04136 x(2,2) >= 1
cut_clique_1(1,2):  0.06461 x(1,2) + 0.04298 x(2,2) >= 1
cut_clique_1(2,2):  0.06731 x(1,2) + 0.04302 x(2,2) >= 1
cut_clique_1(3,2):  0.06138 x(1,2) + 0.04202 x(2,2) >= 1
cut_clique_1(4,2):  0.08552 x(1,2) + 0.04406 x(2,2) >= 1
cut_clique_1(5,2):  0.05831 x(1,2) + 0.04328 x(2,2) >= 1
cut_clique_1(6,2):  0.06138 x(1,2) + 0.04298 x(2,2) >= 1
cut_clique_1(7,2):  0.07697 x(1,2) + 0.05186 x(2,2) >= 1
cut_clique_1(8,2):  0.07851 x(1,2) + 0.05186 x(2,2) >= 1
cut_clique_1(9,2):  0.05831 x(1,2) + 0.04242 x(2,2) >= 1
cut_clique_1(10,2):  0.07223 x(1,2) + 0.05394 x(2,2) >= 1
cut_clique_1(11,2):  0.07223 x(1,2) + 0.05340 x(2,2) >= 1
cut_clique_1(12,2):  0.07223 x(1,2) + 0.05553 x(2,2) >= 1
cut_clique_1(13,2):  0.05831 x(1,2) + 0.04242 x(2,2) >= 1
cut_clique_1(14,2):  0.05890 x(1,2) + 0.04242 x(2,2) >= 1
cut_clique_1(15,2):  0.06138 x(1,2) + 0.04470 x(2,2) >= 1
cut_clique_1(16,2):  0.06138 x(1,2) + 0.04244 x(2,2) >= 1
cut_clique_1(17,2):  0.06934 x(1,2) + 0.06165 x(2,2) >= 1
cut_clique_1(18,2):  0.06240 x(1,2) + 0.06165 x(2,2) >= 1
cut_clique_1(19,2):  0.06240 x(1,2) + 0.05980 x(2,2) >= 1
cut_clique_1(20,2):  0.06240 x(1,2) + 0.06040 x(2,2) >= 1
cut_clique_1(21,2):  0.06490 x(1,2) + 0.06040 x(2,2) >= 1
cut_clique_1(22,2):  0.06490 x(1,2) + 0.06221 x(2,2) >= 1
cut_clique_1(23,2):  0.06490 x(1,2) + 0.05661 x(2,2) >= 1
cut_clique_1(24,2):  0.06490 x(1,2) + 0.05265 x(2,2) >= 1
cut_clique_1(25,2):  0.06879 x(1,2) + 0.05265 x(2,2) >= 1
cut_clique_1(26,2):  0.07430 x(1,2) + 0.05265 x(2,2) >= 1
cut_clique_1(27,2):  0.07801 x(1,2) + 0.05265 x(2,2) >= 1
cut_clique_1(28,2):  0.05831 x(1,2) + 0.04244 x(2,2) >= 1
cut_clique_1(29,2):  0.06731 x(1,2) + 0.04173 x(2,2) >= 1
cut_clique_1(30,2):  0.06731 x(1,2) + 0.04298 x(2,2) >= 1
cut_clique_1(31,2):  0.06987 x(1,2) + 0.06027 x(2,2) >= 1
cut_clique_1(32,2):  0.06777 x(1,2) + 0.06027 x(2,2) >= 1
cut_clique_1(33,2):  0.06709 x(1,2) + 0.06027 x(2,2) >= 1
cut_clique_1(34,2):  0.06642 x(1,2) + 0.06027 x(2,2) >= 1
cut_clique_1(35,2):  0.06842 x(1,2) + 0.06027 x(2,2) >= 1
cut_clique_1(36,2):  0.06842 x(1,2) + 0.05665 x(2,2) >= 1
cut_clique_1(37,2):  0.06157 x(1,2) + 0.05665 x(2,2) >= 1
cut_clique_1(38,2):  0.06157 x(1,2) + 0.05325 x(2,2) >= 1
cut_clique_1(39,2):  0.06157 x(1,2) + 0.05698 x(2,2) >= 1
cut_clique_1(40,2):  0.06404 x(1,2) + 0.05698 x(2,2) >= 1
cut_clique_1(41,2):  0.06404 x(1,2) + 0.05413 x(2,2) >= 1
cut_clique_1(42,2):  0.06852 x(1,2) + 0.05413 x(2,2) >= 1
cut_clique_1(43,2):  0.06852 x(1,2) + 0.04980 x(2,2) >= 1
cut_clique_1(44,2):  0.06509 x(1,2) + 0.04980 x(2,2) >= 1
cut_clique_1(45,2):  0.06509 x(1,2) + 0.04831 x(2,2) >= 1
cut_clique_1(46,2):  0.06509 x(1,2) + 0.04686 x(2,2) >= 1
cut_clique_1(47,2):  0.06119 x(1,2) + 0.04686 x(2,2) >= 1
cut_clique_1(48,2):  0.06119 x(1,2) + 0.04545 x(2,2) >= 1
cut_clique_1(49,2):  0.06731 x(1,2) + 0.04545 x(2,2) >= 1
cut_clique_2(0,1):  0.71611 x(0,1) + 0.83949 x(2,1) >= 1
cut_clique_2(1,1):  0.99478 x(0,1) + 0.97386 x(2,1) >= 1
cut_clique_2(2,1):  0.99478 x(0,1) + 0.99788 x(2,1) >= 1
cut_clique_2(3,1):  0.96572 x(0,1) + 0.57734 x(2,1) >= 1
cut_clique_2(4,1):  0.97538 x(0,1) + 0.73523 x(2,1) >= 1
cut_clique_2(5,1):  0.98543 x(0,1) + 0.58317 x(2,1) >= 1
cut_clique_2(6,1):  0.69011 x(0,1) + 0.81310 x(2,1) >= 1
cut_clique_2(7,1):  0.67824 x(0,1) + 0.83749 x(2,1) >= 1
cut_clique_2(8,1):  0.71611 x(0,1) + 0.83110 x(2,1) >= 1
cut_clique_2(9,1):  0.71611 x(0,1) + 0.91421 x(2,1) >= 1
cut_clique_2(10,1):  0.97528 x(0,1) + 0.81742 x(2,1) >= 1
cut_clique_2(11,1):  0.97528 x(0,1) + 0.80140 x(2,1) >= 1
cut_clique_2(12,1):  0.77308 x(0,1) + 0.86670 x(2,1) >= 1
cut_clique_2(13,1):  0.97528 x(0,1) + 0.97386 x(2,1) >= 1
cut_clique_2(14,1):  0.96572 x(0,1) + 0.66094 x(2,1) >= 1
cut_clique_2(15,1):  0.96572 x(0,1) + 0.58317 x(2,1) >= 1
cut_clique_2(16,1):  0.99478 x(0,1) + 0.99344 x(2,1) >= 1
cut_clique_2(17,1):  0.96562 x(0,1) + 0.73523 x(2,1) >= 1
cut_clique_2(18,1):  0.97528 x(0,1) + 0.95477 x(2,1) >= 1
cut_clique_2(19,1):  0.98543 x(0,1) + 0.54441 x(2,1) >= 1
cut_clique_2(20,1):  0.77308 x(0,1) + 0.82337 x(2,1) >= 1
cut_clique_2(21,1):  0.96572 x(0,1) + 0.73523 x(2,1) >= 1
cut_clique_2(22,1):  0.78056 x(0,1) + 0.73458 x(2,1) >= 1
cut_clique_2(23,1):  0.96572 x(0,1) + 0.61198 x(2,1) >= 1
cut_clique_2(24,1):  0.69998 x(0,1) + 0.90511 x(2,1) >= 1
cut_clique_2(25,1):  0.96572 x(0,1) + 0.68076 x(2,1) >= 1
cut_clique_2(26,1):  0.71611 x(0,1) + 0.93277 x(2,1) >= 1
cut_clique_2(27,1):  0.97528 x(0,1) + 0.73523 x(2,1) >= 1
cut_clique_2(28,1):  0.74781 x(0,1) + 0.80848 x(2,1) >= 1
cut_clique_2(29,1):  0.72814 x(0,1) + 0.81000 x(2,1) >= 1
cut_clique_2(30,1):  0.80016 x(0,1) + 0.80848 x(2,1) >= 1
cut_clique_2(31,1):  0.72348 x(0,1) + 0.86670 x(2,1) >= 1
cut_clique_2(32,1):  0.71611 x(0,1) + 0.80848 x(2,1) >= 1
cut_clique_2(33,1):  0.71220 x(0,1) + 0.80848 x(2,1) >= 1
cut_clique_2(34,1):  0.70350 x(0,1) + 0.82337 x(2,1) >= 1
cut_clique_2(35,1):  0.80016 x(0,1) + 0.74380 x(2,1) >= 1
cut_clique_2(36,1):  0.71581 x(0,1) + 0.86670 x(2,1) >= 1
cut_clique_2(37,1):  0.72348 x(0,1) + 0.81000 x(2,1) >= 1
cut_clique_2(38,1):  0.82372 x(0,1) + 0.73458 x(2,1) >= 1
cut_clique_2(39,1):  0.99478 x(0,1) + 0.99295 x(2,1) >= 1
cut_clique_2(40,1):  0.97528 x(0,1) + 0.92696 x(2,1) >= 1
cut_clique_2(41,1):  0.71611 x(0,1) + 0.89592 x(2,1) >= 1
cut_clique_2(42,1):  0.69146 x(0,1) + 0.80848 x(2,1) >= 1
cut_clique_2(43,1):  0.80016 x(0,1) + 0.81818 x(2,1) >= 1
cut_clique_2(44,1):  0.97528 x(0,1) + 0.88282 x(2,1) >= 1
cut_clique_2(45,1):  0.98543 x(0,1) + 0.56074 x(2,1) >= 1
cut_clique_2(46,1):  0.72814 x(0,1) + 0.81818 x(2,1) >= 1
cut_clique_2(47,1):  0.99478 x(0,1) + 0.98360 x(2,1) >= 1
cut_clique_2(48,1):  0.70178 x(0,1) + 0.86670 x(2,1) >= 1
cut_clique_2(49,1):  0.71611 x(0,1) + 0.86009 x(2,1) >= 1
cut_clique_2(0,2):  0.13612 x(0,2) + 0.00449 x(1,2) >= 1
cut_clique_2(1,2):  0.13612 x(0,2) + 0.00431 x(1,2) >= 1
cut_clique_2(2,2):  0.13612 x(0,2) + 0.00410 x(1,2) >= 1
cut_clique_2(3,2):  0.13612 x(0,2) + 0.00381 x(1,2) >= 1
cut_clique_2(4,2):  0.13612 x(0,2) + 0.00374 x(1,2) >= 1
cut_clique_2(5,2):  0.13612 x(0,2) + 0.00355 x(1,2) >= 1
cut_clique_2(6,2):  0.13612 x(0,2) + 0.00344 x(1,2) >= 1
cut_clique_2(7,2):  0.13612 x(0,2) + 0.00337 x(1,2) >= 1
cut_clique_3(0,1):  0.94825 x(0,1) + 0.95558 x(1,1) >= 1
cut_clique_3(1,1):  0.95774 x(0,1) + 0.95558 x(1,1) >= 1
cut_clique_3(2,1):  0.91895 x(0,1) + 0.95558 x(1,1) >= 1
cut_clique_3(3,1):  0.94825 x(0,1) + 0.99540 x(1,1) >= 1
cut_clique_3(4,1):  0.90985 x(0,1) + 0.95558 x(1,1) >= 1
cut_clique_3(5,1):  0.98328 x(0,1) + 0.95558 x(1,1) >= 1
cut_clique_3(6,1):  0.96361 x(0,1) + 0.95558 x(1,1) >= 1
cut_clique_3(7,1):  0.98288 x(0,1) + 0.99381 x(1,1) >= 1
cut_clique_3(8,1):  0.98288 x(0,1) + 0.96300 x(1,1) >= 1
cut_clique_3(9,1):  0.98288 x(0,1) + 0.94412 x(1,1) >= 1
cut_clique_3(10,1):  0.96361 x(0,1) + 0.99381 x(1,1) >= 1
cut_clique_3(11,1):  0.99271 x(0,1) + 0.96300 x(1,1) >= 1
cut_clique_3(12,1):  0.99271 x(0,1) + 0.94541 x(1,1) >= 1
cut_clique_3(13,1):  0.99271 x(0,1) + 0.97263 x(1,1) >= 1
cut_clique_3(14,1):  0.98278 x(0,1) + 0.94541 x(1,1) >= 1
cut_clique_3(15,1):  0.98278 x(0,1) + 0.99268 x(1,1) >= 1
cut_clique_3(16,1):  0.96283 x(0,1) + 0.99268 x(1,1) >= 1
cut_clique_3(17,1):  0.66521 x(0,1) + 0.98259 x(1,1) >= 1
cut_clique_3(18,1):  0.97246 x(0,1) + 0.99268 x(1,1) >= 1
cut_clique_3(19,1):  0.69182 x(0,1) + 0.93346 x(1,1) >= 1
cut_clique_3(20,1):  0.99796 x(0,1) + 0.99268 x(1,1) >= 1
cut_clique_3(21,1):  0.95330 x(0,1) + 0.99268 x(1,1) >= 1
cut_clique_3(22,1):  0.99796 x(0,1) + 0.99281 x(1,1) >= 1
cut_clique_3(23,1):  0.99201 x(0,1) + 0.99268 x(1,1) >= 1
cut_clique_3(24,1):  0.69487 x(0,1) + 0.93281 x(1,1) >= 1
cut_clique_3(25,1):  0.98219 x(0,1) + 0.99268 x(1,1) >= 1
cut_clique_3(26,1):  0.72711 x(0,1) + 0.93281 x(1,1) >= 1
cut_clique_3(27,1):  0.74166 x(0,1) + 0.93281 x(1,1) >= 1
cut_clique_3(28,1):  0.80841 x(0,1) + 0.93281 x(1,1) >= 1
cut_clique_3(29,1):  0.83266 x(0,1) + 0.93281 x(1,1) >= 1
cut_clique_3(30,1):  0.81600 x(0,1) + 0.93281 x(1,1) >= 1
cut_clique_3(31,1):  0.86496 x(0,1) + 0.93281 x(1,1) >= 1
cut_clique_3(32,1):  0.88226 x(0,1) + 0.93281 x(1,1) >= 1
cut_clique_3(33,1):  0.84697 x(0,1) + 0.93281 x(1,1) >= 1
cut_clique_3(34,1):  0.83003 x(0,1) + 0.93281 x(1,1) >= 1
cut_clique_3(35,1):  0.89644 x(0,1) + 0.93281 x(1,1) >= 1
cut_clique_3(36,1):  0.95919 x(0,1) + 0.93281 x(1,1) >= 1
cut_clique_3(37,1):  0.95919 x(0,1) + 0.91416 x(1,1) >= 1
cut_clique_3(38,1):  0.97837 x(0,1) + 0.91416 x(1,1) >= 1
cut_clique_3(39,1):  0.97837 x(0,1) + 0.94158 x(1,1) >= 1
cut_clique_3(40,1):  0.97837 x(0,1) + 0.99808 x(1,1) >= 1
cut_clique_3(41,1):  0.99794 x(0,1) + 0.99808 x(1,1) >= 1
cut_clique_3(42,1):  0.96800 x(0,1) + 0.99808 x(1,1) >= 1
cut_clique_3(43,1):  0.97768 x(0,1) + 0.99808 x(1,1) >= 1
cut_clique_3(44,1):  0.98746 x(0,1) + 0.99808 x(1,1) >= 1
cut_clique_3(45,1):  0.98746 x(0,1) + 0.95815 x(1,1) >= 1
cut_clique_3(46,1):  0.97758 x(0,1) + 0.95815 x(1,1) >= 1
cut_clique_3(47,1):  0.97758 x(0,1) + 0.92941 x(1,1) >= 1
cut_clique_3(48,1):  0.94825 x(0,1) + 0.92941 x(1,1) >= 1
cut_clique_3(49,1):  0.94825 x(0,1) + 0.94800 x(1,1) >= 1
cut_clique_4(0,1):  0.94273 x(0,1) + 0.14302 x(1,1) >= 1
cut_clique_4(1,1):  0.86687 x(0,1) + 0.14302 x(1,1) >= 1
cut_clique_4(2,1):  0.94318 x(0,1) + 0.14302 x(1,1) >= 1
cut_clique_4(3,1):  0.84077 x(0,1) + 0.14302 x(1,1) >= 1
cut_clique_4(4,1):  0.91270 x(0,1) + 0.14302 x(1,1) >= 1
cut_clique_4(5,1):  0.84886 x(0,1) + 0.14302 x(1,1) >= 1
cut_clique_4(6,1):  0.98219 x(0,1) + 0.14302 x(1,1) >= 1
cut_clique_4(7,1):  0.99043 x(0,1) + 0.14302 x(1,1) >= 1
cut_clique_4(8,1):  0.85743 x(0,1) + 0.14302 x(1,1) >= 1
cut_clique_4(9,1):  0.97101 x(0,1) + 0.14302 x(1,1) >= 1
cut_clique_4(10,1):  0.90804 x(0,1) + 0.14302 x(1,1) >= 1
cut_clique_4(11,1):  0.96225 x(0,1) + 0.14302 x(1,1) >= 1
cut_clique_4(12,1):  0.84987 x(0,1) + 0.14302 x(1,1) >= 1
cut_clique_4(13,1):  0.90043 x(0,1) + 0.14302 x(1,1) >= 1
cut_clique_4(14,1):  0.88894 x(0,1) + 0.14302 x(1,1) >= 1
cut_clique_4(15,1):  0.90929 x(0,1) + 0.14302 x(1,1) >= 1
cut_clique_4(16,1):  0.90522 x(0,1) + 0.14302 x(1,1) >= 1
cut_clique_4(17,1):  0.97071 x(0,1) + 0.14302 x(1,1) >= 1
cut_clique_4(18,1):  0.97834 x(0,1) + 0.14302 x(1,1) >= 1
cut_clique_4(19,1):  0.84312 x(0,1) + 0.14302 x(1,1) >= 1
cut_clique_4(20,1):  0.89310 x(0,1) + 0.14302 x(1,1) >= 1
cut_clique_4(21,1):  0.89151 x(0,1) + 0.14302 x(1,1) >= 1
cut_clique_4(22,1):  0.85819 x(0,1) + 0.14302 x(1,1) >= 1
cut_clique_4(23,1):  0.89617 x(0,1) + 0.14302 x(1,1) >= 1
cut_clique_4(24,1):  0.94486 x(0,1) + 0.14302 x(1,1) >= 1
cut_clique_4(25,1):  0.99201 x(0,1) + 0.14302 x(1,1) >= 1
cut_clique_4(26,1):  0.95168 x(0,1) + 0.14302 x(1,1) >= 1
cut_clique_4(27,1):  0.84750 x(0,1) + 0.14302 x(1,1) >= 1
cut_clique_4(28,1):  0.92378 x(0,1) + 0.14302 x(1,1) >= 1
cut_clique_4(29,1):  0.89851 x(0,1) + 0.14302 x(1,1) >= 1
cut_clique_4(30,1):  0.87268 x(0,1) + 0.14302 x(1,1) >= 1
cut_clique_4(31,1):  0.88817 x(0,1) + 0.14302 x(1,1) >= 1
cut_clique_4(32,1):  0.92396 x(0,1) + 0.14302 x(1,1) >= 1
cut_clique_4(33,1):  0.91644 x(0,1) + 0.14302 x(1,1) >= 1
cut_clique_4(34,1):  0.98700 x(0,1) + 0.14302 x(1,1) >= 1
cut_clique_4(35,1):  0.92942 x(0,1) + 0.14302 x(1,1) >= 1
cut_clique_4(36,1):  0.86684 x(0,1) + 0.14302 x(1,1) >= 1
cut_clique_4(37,1):  0.90759 x(0,1) + 0.14302 x(1,1) >= 1
cut_clique_4(38,1):  0.98042 x(0,1) + 0.14302 x(1,1) >= 1
cut_clique_4(39,1):  0.87825 x(0,1) + 0.14302 x(1,1) >= 1
cut_clique_4(40,1):  0.97246 x(0,1) + 0.14302 x(1,1) >= 1
cut_clique_4(41,1):  0.94071 x(0,1) + 0.14302 x(1,1) >= 1
cut_clique_4(42,1):  0.86677 x(0,1) + 0.14302 x(1,1) >= 1
cut_clique_4(43,1):  0.96746 x(0,1) + 0.14302 x(1,1) >= 1
cut_clique_4(44,1):  0.87565 x(0,1) + 0.14302 x(1,1) >= 1
cut_clique_4(45,1):  0.89783 x(0,1) + 0.14302 x(1,1) >= 1
cut_clique_4(46,1):  0.93844 x(0,1) + 0.14302 x(1,1) >= 1
cut_clique_4(47,1):  0.92370 x(0,1) + 0.14302 x(1,1) >= 1
cut_clique_4(48,1):  0.88417 x(0,1) + 0.14302 x(1,1) >= 1
cut_clique_4(49,1):  0.99022 x(0,1) + 0.14302 x(1,1) >= 1
cut_clique_5(0,1):  0.55712 x(0,1) + 0.54666 x(2,1) >= 1
cut_clique_5(1,1):  0.55155 x(0,1) + 0.54666 x(2,1) >= 1
cut_clique_5(2,1):  0.55155 x(0,1) + 0.49746 x(2,1) >= 1
cut_clique_5(3,1):  0.55155 x(0,1) + 0.49248 x(2,1) >= 1
cut_clique_5(4,1):  0.55155 x(0,1) + 0.52723 x(2,1) >= 1
cut_clique_5(5,1):  0.56258 x(0,1) + 0.52723 x(2,1) >= 1
cut_clique_5(6,1):  0.56258 x(0,1) + 0.57996 x(2,1) >= 1
cut_clique_5(7,1):  0.56258 x(0,1) + 0.62635 x(2,1) >= 1
cut_clique_5(8,1):  0.57383 x(0,1) + 0.62635 x(2,1) >= 1
cut_clique_5(9,1):  0.61974 x(0,1) + 0.62635 x(2,1) >= 1
cut_clique_5(10,1):  0.55776 x(0,1) + 0.62635 x(2,1) >= 1
cut_clique_5(11,1):  0.55776 x(0,1) + 0.56372 x(2,1) >= 1
cut_clique_5(12,1):  0.55776 x(0,1) + 0.55808 x(2,1) >= 1
cut_clique_5(13,1):  0.55776 x(0,1) + 0.55250 x(2,1) >= 1
cut_clique_5(14,1):  0.55776 x(0,1) + 0.57460 x(2,1) >= 1
cut_clique_5(15,1):  0.26206 x(0,1) + 0.18915 x(1,1) >= 1
cut_clique_5(16,1):  0.25166 x(0,1) + 0.18915 x(1,1) >= 1
cut_clique_5(17,1):  0.25166 x(0,1) + 0.16531 x(1,1) >= 1
cut_clique_5(18,1):  0.25166 x(0,1) + 0.15044 x(1,1) >= 1
cut_clique_5(19,1):  0.52727 x(0,1) + 0.78194 x(2,1) >= 1
cut_clique_5(20,1):  0.25166 x(0,1) + 0.14446 x(1,1) >= 1
cut_clique_5(21,1):  0.25166 x(0,1) + 0.16869 x(1,1) >= 1
cut_clique_5(22,1):  0.25166 x(0,1) + 0.14592 x(1,1) >= 1
cut_clique_5(23,1):  0.33315 x(0,1) + 0.75066 x(2,1) >= 1
cut_clique_5(24,1):  0.33315 x(0,1) + 0.79570 x(2,1) >= 1
cut_clique_5(25,1):  0.34647 x(0,1) + 0.79570 x(2,1) >= 1
cut_clique_5(26,1):  0.31529 x(0,1) + 0.79570 x(2,1) >= 1
cut_clique_5(27,1):  0.30268 x(0,1) + 0.79570 x(2,1) >= 1
cut_clique_5(28,1):  0.30268 x(0,1) + 0.75592 x(2,1) >= 1
cut_clique_5(29,1):  0.30268 x(0,1) + 0.69544 x(2,1) >= 1
cut_clique_5(30,1):  0.30268 x(0,1) + 0.64676 x(2,1) >= 1
cut_clique_5(31,1):  0.28755 x(0,1) + 0.64676 x(2,1) >= 1
cut_clique_5(32,1):  0.28755 x(0,1) + 0.60796 x(2,1) >= 1
cut_clique_5(33,1):  0.28755 x(0,1) + 0.58972 x(2,1) >= 1
cut_clique_5(34,1):  0.28755 x(0,1) + 0.64869 x(2,1) >= 1
cut_clique_5(35,1):  0.28755 x(0,1) + 0.59679 x(2,1) >= 1
cut_clique_5(36,1):  0.28755 x(0,1) + 0.63260 x(2,1) >= 1
cut_clique_5(37,1):  0.28755 x(0,1) + 0.68954 x(2,1) >= 1
cut_clique_5(38,1):  0.28755 x(0,1) + 0.63437 x(2,1) >= 1
cut_clique_5(39,1):  0.16809 x(1,1) + 0.25074 x(2,1) >= 1
cut_clique_5(40,1):  0.32289 x(0,1) + 0.01587 x(1,1) + 0.47343 x(2,1) >= 1
cut_clique_5(41,1):  0.32289 x(0,1) + 0.01587 x(1,1) + 0.49237 x(2,1) >= 1
cut_clique_5(42,1):  0.32289 x(0,1) + 0.01428 x(1,1) + 0.49237 x(2,1) >= 1
cut_clique_5(43,1):  0.25420 x(0,1) + 0.18915 x(1,1) >= 1
cut_clique_5(44,1):  0.25166 x(0,1) + 0.18537 x(1,1) >= 1
cut_clique_5(45,1):  0.25166 x(0,1) + 0.14302 x(1,1) >= 1
cut_clique_5(46,1):  0.29089 x(0,1) + 0.19496 x(1,1) >= 1
cut_clique_5(47,1):  0.28798 x(0,1) + 0.19496 x(1,1) >= 1
cut_clique_5(48,1):  0.26206 x(0,1) + 0.19496 x(1,1) >= 1
cut_clique_5(49,1):  0.26206 x(0,1) + 0.19106 x(1,1) >= 1
cut_clique_5(0,2):  0.08558 x(0,2) + 0.03069 x(1,2) >= 1
cut_clique_5(1,2):  0.08558 x(0,2) + 0.03038 x(1,2) >= 1
cut_clique_5(2,2):  0.08387 x(0,2) + 0.03038 x(1,2) >= 1
cut_clique_5(3,2):  0.08387 x(0,2) + 0.03008 x(1,2) >= 1
cut_clique_5(4,2):  0.08303 x(0,2) + 0.03008 x(1,2) >= 1
Bounds
 0 <= C <= 44
 14 <= x(0,0) <= 43
 0 <= y(0,1,0) <= 1
 0 <= y(1,0,0) <= 1
 0 <= v(0,1,0)p <= 36
 0 <= v(0,1,0)n <= 23
 0 <= v(1,0,0)p <= 19
 0 <= v(1,0,0)n <= 40
 0 <= u(0,1,0)p <= 440
 0 <= u(0,1,0)n <= 440
 0 <= u(1,0,0)p <= 440
 0 <= u(1,0,0)n <= 440
 0 <= y(0,2,0) <= 1
 0 <= y(2,0,0) <= 1
 0 <= v(0,2,0)p <= 28
 0 <= v(0,2,0)n <= 30
 0 <= v(2,0,0)p <= 27
 0 <= v(2,0,0)n <= 31
 0 <= u(0,2,0)p <= 440
 0 <= u(0,2,0)n <= 440
 0 <= u(2,0,0)p <= 440
 0 <= u(2,0,0)n <= 440
 4 <= x(1,0) <= 34
 0 <= y(1,2,0) <= 1
 0 <= y(2,1,0) <= 1
 0 <= v(1,2,0)p <= 19
 0 <= v(1,2,0)n <= 40
 0 <= v(2,1,0)p <= 35
 0 <= v(2,1,0)n <= 24
 0 <= u(1,2,0)p <= 440
 0 <= u(1,2,0)n <= 440
 0 <= u(2,1,0)p <= 440
 0 <= u(2,1,0)n <= 440
 13 <= x(2,0) <= 42
 0 <= x(0,1) <= 29
 0 <= y(0,1,1) <= 1
 0 <= y(1,0,1) <= 1
 0 <= v(0,1,1)p <= 25
 0 <= v(0,1,1)n <= 34
 0 <= v(1,0,1)p <= 23
 0 <= v(1,0,1)n <= 36
 0 <= u(0,1,1)p <= 440
 0 <= u(0,1,1)n <= 440
 0 <= u(1,0,1)p <= 440
 0 <= u(1,0,1)n <= 440
 0 <= y(0,2,1) <= 1
 0 <= y(2,0,1) <= 1
 0 <= v(0,2,1)p <= 22
 0 <= v(0,2,1)n <= 36
 0 <= v(2,0,1)p <= 22
 0 <= v(2,0,1)n <= 36
 0 <= u(0,2,1)p <= 440
 0 <= u(0,2,1)n <= 440
 0 <= u(2,0,1)p <= 440
 0 <= u(2,0,1)n <= 440
 0 <= x(1,1) <= 30
 0 <= y(1,2,1) <= 1
 0 <= y(2,1,1) <= 1
 0 <= v(1,2,1)p <= 23
 0 <= v(1,2,1)n <= 36
 0 <= v(2,1,1)p <= 25
 0 <= v(2,1,1)n <= 34
 0 <= u(1,2,1)p <= 440
 0 <= u(1,2,1)n <= 440
 0 <= u(2,1,1)p <= 440
 0 <= u(2,1,1)n <= 440
 0 <= x(2,1) <= 29
 7 <= x(0,2) <= 36
 0 <= y(0,1,2) <= 1
 0 <= y(1,0,2) <= 1
 0 <= v(0,1,2)p <= 22
 0 <= v(0,1,2)n <= 37
 0 <= v(1,0,2)p <= 23
 0 <= v(1,0,2)n <= 36
 0 <= u(0,1,2)p <= 440
 0 <= u(0,1,2)n <= 440
 0 <= u(1,0,2)p <= 440
 0 <= u(1,0,2)n <= 440
 0 <= y(0,2,2) <= 1
 0 <= y(2,0,2) <= 1
 0 <= v(0,2,2)p <= 23
 0 <= v(0,2,2)n <= 35
 0 <= v(2,0,2)p <= 22
 0 <= v(2,0,2)n <= 36
 0 <= u(0,2,2)p <= 440
 0 <= u(0,2,2)n <= 440
 0 <= u(2,0,2)p <= 440
 0 <= u(2,0,2)n <= 440
 7 <= x(1,2) <= 37
 0 <= y(1,2,2) <= 1
 0 <= y(2,1,2) <= 1
 0 <= v(1,2,2)p <= 24
 0 <= v(1,2,2)n <= 35
 0 <= v(2,1,2)p <= 22
 0 <= v(2,1,2)n <= 37
 0 <= u(1,2,2)p <= 440
 0 <= u(1,2,2)n <= 440
 0 <= u(2,1,2)p <= 440
 0 <= u(2,1,2)n <= 440
 7 <= x(2,2) <= 36
End
